4 
5  19 32 56 
6  12 27 41 56 
7  14 29 44 59 
8  14 29 44 59 
9  14 29 44 59 
10  16 31 46 
11  01 16 31 46 
12  01 16 31 46 
13  01 16 32 47 
14  02 17 32 47 
15  02 16 30 45 
16  00 15 30 45 
17  00 15 30 45 
18  00 15 30 45 
19  00 16 30 45 
20  00 14 29 44 59 
21  14 29 44 
22  14 
23  
0  
1 
